\ Generated by MPModelProtoExporter
\   Name             : 
\   Format           : Free
\   Constraints      : 146
\   Variables        : 19
\     Binary         : 0
\     Integer        : 0
\     Continuous     : 19
Maximize
 Obj: -1 _1 -2 _2 -1 _3 -1 _4 -1 _5 +1 _0CHN_1 +1 _0CI_1_2_3 +1 _0CN_4 +1 _0CT_5 +1 _0MC_2_4_5 +1 _0RT_3 +1 _0T_2 
Subject to
 Mono_Ineq.__H(0CHN_1)____H(0CHN): -1 _0CHN +1 _0CHN_1  >= 0
 Mono_Ineq.__H(0CHN_1)____H(1): -1 _1 +1 _0CHN_1  >= 0
 Additivity_Ineq.__H(0CHN_1)____H(0CHN)___H(1): -1 _1 -1 _0CHN +1 _0CHN_1  <= 0
 Mono_Ineq.__H(0CI_1_2_3)____H(0CI): -1 _0CI +1 _0CI_1_2_3  >= 0
 Mono_Ineq.__H(0CI_1_2_3)____H(2): -1 _2 +1 _0CI_1_2_3  >= 0
 Mono_Ineq.__H(0CI_1_2_3)____H(3): -1 _3 +1 _0CI_1_2_3  >= 0
 Mono_Ineq.__H(0CI_1_2_3)____H(1): -1 _1 +1 _0CI_1_2_3  >= 0
 Additivity_Ineq.__H(0CI_1_2_3)____H(0CI)___H(2)___H(3)___H(1): -1 _1 -1 _2 -1 _3 -1 _0CI +1 _0CI_1_2_3  <= 0
 Mono_Ineq.__H(0CN_4)____H(0CN): -1 _0CN +1 _0CN_4  >= 0
 Mono_Ineq.__H(0CN_4)____H(4): -1 _4 +1 _0CN_4  >= 0
 Additivity_Ineq.__H(0CN_4)____H(0CN)___H(4): -1 _4 -1 _0CN +1 _0CN_4  <= 0
 Mono_Ineq.__H(0CT_5)____H(0CT): -1 _0CT +1 _0CT_5  >= 0
 Mono_Ineq.__H(0CT_5)____H(5): -1 _5 +1 _0CT_5  >= 0
 Additivity_Ineq.__H(0CT_5)____H(0CT)___H(5): -1 _5 -1 _0CT +1 _0CT_5  <= 0
 Mono_Ineq.__H(0MC_2_4_5)____H(0MC): -1 _0MC +1 _0MC_2_4_5  >= 0
 Mono_Ineq.__H(0MC_2_4_5)____H(2): -1 _2 +1 _0MC_2_4_5  >= 0
 Mono_Ineq.__H(0MC_2_4_5)____H(5): -1 _5 +1 _0MC_2_4_5  >= 0
 Mono_Ineq.__H(0MC_2_4_5)____H(4): -1 _4 +1 _0MC_2_4_5  >= 0
 Additivity_Ineq.__H(0MC_2_4_5)____H(0MC)___H(2)___H(5)___H(4): -1 _2 -1 _4 -1 _5 -1 _0MC +1 _0MC_2_4_5  <= 0
 Mono_Ineq.__H(0RT_3)____H(0RT): -1 _0RT +1 _0RT_3  >= 0
 Mono_Ineq.__H(0RT_3)____H(3): -1 _3 +1 _0RT_3  >= 0
 Additivity_Ineq.__H(0RT_3)____H(0RT)___H(3): -1 _3 -1 _0RT +1 _0RT_3  <= 0
 Mono_Ineq.__H(0T_2)____H(0T): -1 _0T +1 _0T_2  >= 0
 Mono_Ineq.__H(0T_2)____H(2): -1 _2 +1 _0T_2  >= 0
 Additivity_Ineq.__H(0T_2)____H(0T)___H(2): -1 _2 -1 _0T +1 _0T_2  <= 0
 Statistics_Ineq._1__1___h(0CHN_1)___0___h(1)____1___log2(3140339.0)_|_1_|_CHN.ID: +1 _0CHN_1  <= 21.5825
 Statistics_Ineq._2__2___h(0CHN_1)___1___h(1)____2___log2(1772.100166469153)_|_2_|_CHN.ID: -1 _1 +2 _0CHN_1  <= 21.5825
 Statistics_Ineq._3__3___h(0CHN_1)___2___h(1)____3___log2(146.43970463493355)_|_3_|_CHN.ID: -2 _1 +3 _0CHN_1  <= 21.5825
 Statistics_Ineq._4__4___h(0CHN_1)___3___h(1)____4___log2(42.09632010602771)_|_4_|_CHN.ID: -3 _1 +4 _0CHN_1  <= 21.5825
 Statistics_Ineq._5__5___h(0CHN_1)___4___h(1)____5___log2(19.924861284462093)_|_5_|_CHN.ID: -4 _1 +5 _0CHN_1  <= 21.5825
 Statistics_Ineq._6__6___h(0CHN_1)___5___h(1)____6___log2(12.101227402000738)_|_6_|_CHN.ID: -5 _1 +6 _0CHN_1  <= 21.5825
 Statistics_Ineq._7__7___h(0CHN_1)___6___h(1)____7___log2(8.47499605425258)_|_7_|_CHN.ID: -6 _1 +7 _0CHN_1  <= 21.5825
 Statistics_Ineq._8__8___h(0CHN_1)___7___h(1)____8___log2(6.488167700208412)_|_8_|_CHN.ID: -7 _1 +8 _0CHN_1  <= 21.5825
 Statistics_Ineq._9__9___h(0CHN_1)___8___h(1)____9___log2(5.27091826088404)_|_9_|_CHN.ID: -8 _1 +9 _0CHN_1  <= 21.5825
 Statistics_Ineq._10__10___h(0CHN_1)___9___h(1)____10___log2(4.4637272860763)_|_10_|_CHN.ID: -9 _1 +10 _0CHN_1  <= 21.5825
 Statistics_Ineq._11__h(0CHN_1)___h(1)____log2(1.0)_|_inf_|_CHN.ID: -1 _1 +1 _0CHN_1  <= 0
 Statistics_Ineq._12__1___h(0CI_1_2_3)___0___h(2)____1___log2(35980925.0)_|_1_|_CI.MOVIE_ID: +1 _0CI_1_2_3  <= 25.1007
 Statistics_Ineq._13__2___h(0CI_1_2_3)___1___h(2)____2___log2(36794.647776544894)_|_2_|_CI.MOVIE_ID: -1 _2 +2 _0CI_1_2_3  <= 30.3344
 Statistics_Ineq._14__3___h(0CI_1_2_3)___2___h(2)____3___log2(4924.448265086128)_|_3_|_CI.MOVIE_ID: -2 _2 +3 _0CI_1_2_3  <= 36.7972
 Statistics_Ineq._15__4___h(0CI_1_2_3)___3___h(2)____4___log2(2538.720010287561)_|_4_|_CI.MOVIE_ID: -3 _2 +4 _0CI_1_2_3  <= 45.2395
 Statistics_Ineq._16__5___h(0CI_1_2_3)___4___h(2)____5___log2(2121.0976397603176)_|_5_|_CI.MOVIE_ID: -4 _2 +5 _0CI_1_2_3  <= 55.253
 Statistics_Ineq._17__6___h(0CI_1_2_3)___5___h(2)____6___log2(1987.7700676695213)_|_6_|_CI.MOVIE_ID: -5 _2 +6 _0CI_1_2_3  <= 65.7416
 Statistics_Ineq._18__7___h(0CI_1_2_3)___6___h(2)____7___log2(1921.0740342524375)_|_7_|_CI.MOVIE_ID: -6 _2 +7 _0CI_1_2_3  <= 76.3539
 Statistics_Ineq._19__8___h(0CI_1_2_3)___7___h(2)____8___log2(1879.7453515191166)_|_8_|_CI.MOVIE_ID: -7 _2 +8 _0CI_1_2_3  <= 87.0106
 Statistics_Ineq._20__9___h(0CI_1_2_3)___8___h(2)____9___log2(1851.259364856661)_|_9_|_CI.MOVIE_ID: -8 _2 +9 _0CI_1_2_3  <= 97.6886
 Statistics_Ineq._21__10___h(0CI_1_2_3)___9___h(2)____10___log2(1830.377763405358)_|_10_|_CI.MOVIE_ID: -9 _2 +10 _0CI_1_2_3  <= 108.379
 Statistics_Ineq._22__h(0CI_1_2_3)___h(2)____log2(1741.0)_|_inf_|_CI.MOVIE_ID: -1 _2 +1 _0CI_1_2_3  <= 10.7657
 Statistics_Ineq._23__1___h(0CI_1_2_3)___0___h(3)____1___log2(36244344.0)_|_1_|_CI.ROLE_ID: +1 _0CI_1_2_3  <= 25.1113
 Statistics_Ineq._24__2___h(0CI_1_2_3)___1___h(3)____2___log2(16246788.680202559)_|_2_|_CI.ROLE_ID: -1 _3 +2 _0CI_1_2_3  <= 47.9073
 Statistics_Ineq._25__3___h(0CI_1_2_3)___2___h(3)____3___log2(13787693.250407517)_|_3_|_CI.ROLE_ID: -2 _3 +3 _0CI_1_2_3  <= 71.1506
 Statistics_Ineq._26__4___h(0CI_1_2_3)___3___h(3)____4___log2(13109174.365263646)_|_4_|_CI.ROLE_ID: -3 _3 +4 _0CI_1_2_3  <= 94.5763
 Statistics_Ineq._27__5___h(0CI_1_2_3)___4___h(3)____5___log2(12864055.278090362)_|_5_|_CI.ROLE_ID: -4 _3 +5 _0CI_1_2_3  <= 118.084
 Statistics_Ineq._28__6___h(0CI_1_2_3)___5___h(3)____6___log2(12762087.622636182)_|_6_|_CI.ROLE_ID: -5 _3 +6 _0CI_1_2_3  <= 141.632
 Statistics_Ineq._29__7___h(0CI_1_2_3)___6___h(3)____7___log2(12715845.919101601)_|_7_|_CI.ROLE_ID: -6 _3 +7 _0CI_1_2_3  <= 165.201
 Statistics_Ineq._30__8___h(0CI_1_2_3)___7___h(3)____8___log2(12693670.080189481)_|_8_|_CI.ROLE_ID: -7 _3 +8 _0CI_1_2_3  <= 188.781
 Statistics_Ineq._31__9___h(0CI_1_2_3)___8___h(3)____9___log2(12682629.301795889)_|_9_|_CI.ROLE_ID: -8 _3 +9 _0CI_1_2_3  <= 212.367
 Statistics_Ineq._32__10___h(0CI_1_2_3)___9___h(3)____10___log2(12676987.467894154)_|_10_|_CI.ROLE_ID: -9 _3 +10 _0CI_1_2_3  <= 235.957
 Statistics_Ineq._33__h(0CI_1_2_3)___h(3)____log2(12670688.0)_|_inf_|_CI.ROLE_ID: -1 _3 +1 _0CI_1_2_3  <= 23.595
 Statistics_Ineq._34__1___h(0CI_1_2_3)___0___h(1)____1___log2(17571519.0)_|_1_|_CI.PERSON_ROLE_ID: +1 _0CI_1_2_3  <= 24.0667
 Statistics_Ineq._35__2___h(0CI_1_2_3)___1___h(1)____2___log2(1521303.4977824115)_|_2_|_CI.PERSON_ROLE_ID: -1 _1 +2 _0CI_1_2_3  <= 41.0738
 Statistics_Ineq._36__3___h(0CI_1_2_3)___2___h(1)____3___log2(1380578.783589613)_|_3_|_CI.PERSON_ROLE_ID: -2 _1 +3 _0CI_1_2_3  <= 61.1905
 Statistics_Ineq._37__4___h(0CI_1_2_3)___3___h(1)____4___log2(1343933.1804706547)_|_4_|_CI.PERSON_ROLE_ID: -3 _1 +4 _0CI_1_2_3  <= 81.4321
 Statistics_Ineq._38__5___h(0CI_1_2_3)___4___h(1)____5___log2(1331240.0222326992)_|_5_|_CI.PERSON_ROLE_ID: -4 _1 +5 _0CI_1_2_3  <= 101.722
 Statistics_Ineq._39__6___h(0CI_1_2_3)___5___h(1)____6___log2(1326356.7974254584)_|_6_|_CI.PERSON_ROLE_ID: -5 _1 +6 _0CI_1_2_3  <= 122.034
 Statistics_Ineq._40__7___h(0CI_1_2_3)___6___h(1)____7___log2(1324367.6246534532)_|_7_|_CI.PERSON_ROLE_ID: -6 _1 +7 _0CI_1_2_3  <= 142.358
 Statistics_Ineq._41__8___h(0CI_1_2_3)___7___h(1)____8___log2(1323527.6383859944)_|_8_|_CI.PERSON_ROLE_ID: -7 _1 +8 _0CI_1_2_3  <= 162.688
 Statistics_Ineq._42__9___h(0CI_1_2_3)___8___h(1)____9___log2(1323164.0043871063)_|_9_|_CI.PERSON_ROLE_ID: -8 _1 +9 _0CI_1_2_3  <= 183.02
 Statistics_Ineq._43__10___h(0CI_1_2_3)___9___h(1)____10___log2(1323003.6736106128)_|_10_|_CI.PERSON_ROLE_ID: -9 _1 +10 _0CI_1_2_3  <= 203.354
 Statistics_Ineq._44__h(0CI_1_2_3)___h(1)____log2(1322872.0)_|_inf_|_CI.PERSON_ROLE_ID: -1 _1 +1 _0CI_1_2_3  <= 20.3352
 Statistics_Ineq._45__1___h(0CN_4)___0___h(4)____1___log2(234997.0)_|_1_|_CN.ID: +1 _0CN_4  <= 17.8423
 Statistics_Ineq._46__2___h(0CN_4)___1___h(4)____2___log2(484.76489146801873)_|_2_|_CN.ID: -1 _4 +2 _0CN_4  <= 17.8423
 Statistics_Ineq._47__3___h(0CN_4)___2___h(4)____3___log2(61.709795330658544)_|_3_|_CN.ID: -2 _4 +3 _0CN_4  <= 17.8423
 Statistics_Ineq._48__4___h(0CN_4)___3___h(4)____4___log2(22.017377034243175)_|_4_|_CN.ID: -3 _4 +4 _0CN_4  <= 17.8423
 Statistics_Ineq._49__5___h(0CN_4)___4___h(4)____5___log2(11.863489865870786)_|_5_|_CN.ID: -4 _4 +5 _0CN_4  <= 17.8423
 Statistics_Ineq._50__6___h(0CN_4)___5___h(4)____6___log2(7.855558244368031)_|_6_|_CN.ID: -5 _4 +6 _0CN_4  <= 17.8423
 Statistics_Ineq._51__7___h(0CN_4)___6___h(4)____7___log2(5.851869288664952)_|_7_|_CN.ID: -6 _4 +7 _0CN_4  <= 17.8423
 Statistics_Ineq._52__8___h(0CN_4)___7___h(4)____8___log2(4.692267792256019)_|_8_|_CN.ID: -7 _4 +8 _0CN_4  <= 17.8423
 Statistics_Ineq._53__9___h(0CN_4)___8___h(4)____9___log2(3.95170668822707)_|_9_|_CN.ID: -8 _4 +9 _0CN_4  <= 17.8423
 Statistics_Ineq._54__10___h(0CN_4)___9___h(4)____10___log2(3.4443417173490185)_|_10_|_CN.ID: -9 _4 +10 _0CN_4  <= 17.8423
 Statistics_Ineq._55__h(0CN_4)___h(4)____log2(1.0)_|_inf_|_CN.ID: -1 _4 +1 _0CN_4  <= 0
 Statistics_Ineq._56__1___h(0CT_5)___0___h(5)____1___log2(2.0)_|_1_|_CT.ID: +1 _0CT_5  <= 1
 Statistics_Ineq._57__2___h(0CT_5)___1___h(5)____2___log2(1.4142135623730951)_|_2_|_CT.ID: -1 _5 +2 _0CT_5  <= 1
 Statistics_Ineq._58__3___h(0CT_5)___2___h(5)____3___log2(1.2599210498948732)_|_3_|_CT.ID: -2 _5 +3 _0CT_5  <= 1
 Statistics_Ineq._59__4___h(0CT_5)___3___h(5)____4___log2(1.189207115002721)_|_4_|_CT.ID: -3 _5 +4 _0CT_5  <= 1
 Statistics_Ineq._60__5___h(0CT_5)___4___h(5)____5___log2(1.148698354997035)_|_5_|_CT.ID: -4 _5 +5 _0CT_5  <= 1
 Statistics_Ineq._61__6___h(0CT_5)___5___h(5)____6___log2(1.122462048309373)_|_6_|_CT.ID: -5 _5 +6 _0CT_5  <= 1
 Statistics_Ineq._62__7___h(0CT_5)___6___h(5)____7___log2(1.1040895136738123)_|_7_|_CT.ID: -6 _5 +7 _0CT_5  <= 1
 Statistics_Ineq._63__8___h(0CT_5)___7___h(5)____8___log2(1.0905077326652577)_|_8_|_CT.ID: -7 _5 +8 _0CT_5  <= 1
 Statistics_Ineq._64__9___h(0CT_5)___8___h(5)____9___log2(1.080059738892306)_|_9_|_CT.ID: -8 _5 +9 _0CT_5  <= 1
 Statistics_Ineq._65__10___h(0CT_5)___9___h(5)____10___log2(1.0717734625362931)_|_10_|_CT.ID: -9 _5 +10 _0CT_5  <= 1
 Statistics_Ineq._66__h(0CT_5)___h(5)____log2(1.0)_|_inf_|_CT.ID: -1 _5 +1 _0CT_5  <= 0
 Statistics_Ineq._67__1___h(0MC_2_4_5)___0___h(2)____1___log2(2609129.0)_|_1_|_MC.MOVIE_ID: +1 _0MC_2_4_5  <= 21.3151
 Statistics_Ineq._68__2___h(0MC_2_4_5)___1___h(2)____2___log2(3794.3649007442605)_|_2_|_MC.MOVIE_ID: -1 _2 +2 _0MC_2_4_5  <= 23.7793
 Statistics_Ineq._69__3___h(0MC_2_4_5)___2___h(2)____3___log2(608.8517618461212)_|_3_|_MC.MOVIE_ID: -2 _2 +3 _0MC_2_4_5  <= 27.7498
 Statistics_Ineq._70__4___h(0MC_2_4_5)___3___h(2)____4___log2(284.0352574053065)_|_4_|_MC.MOVIE_ID: -3 _2 +4 _0MC_2_4_5  <= 32.5997
 Statistics_Ineq._71__5___h(0MC_2_4_5)___4___h(2)____5___log2(190.2084852443135)_|_5_|_MC.MOVIE_ID: -4 _2 +5 _0MC_2_4_5  <= 37.8572
 Statistics_Ineq._72__6___h(0MC_2_4_5)___5___h(2)____6___log2(149.8971297734594)_|_6_|_MC.MOVIE_ID: -5 _2 +6 _0MC_2_4_5  <= 43.367
 Statistics_Ineq._73__7___h(0MC_2_4_5)___6___h(2)____7___log2(128.94997314130077)_|_7_|_MC.MOVIE_ID: -6 _2 +7 _0MC_2_4_5  <= 49.0747
 Statistics_Ineq._74__8___h(0MC_2_4_5)___7___h(2)____8___log2(116.88883901718397)_|_8_|_MC.MOVIE_ID: -7 _2 +8 _0MC_2_4_5  <= 54.9519
 Statistics_Ineq._75__9___h(0MC_2_4_5)___8___h(2)____9___log2(109.52056839032218)_|_9_|_MC.MOVIE_ID: -8 _2 +9 _0MC_2_4_5  <= 60.9755
 Statistics_Ineq._76__10___h(0MC_2_4_5)___9___h(2)____10___log2(104.8481910727191)_|_10_|_MC.MOVIE_ID: -9 _2 +10 _0MC_2_4_5  <= 67.1216
 Statistics_Ineq._77__h(0MC_2_4_5)___h(2)____log2(94.0)_|_inf_|_MC.MOVIE_ID: -1 _2 +1 _0MC_2_4_5  <= 6.55459
 Statistics_Ineq._78__1___h(0MC_2_4_5)___0___h(5)____1___log2(2609129.0)_|_1_|_MC.COMPANY_TYPE_ID: +1 _0MC_2_4_5  <= 21.3151
 Statistics_Ineq._79__2___h(0MC_2_4_5)___1___h(5)____2___log2(1845430.977361386)_|_2_|_MC.COMPANY_TYPE_ID: -1 _5 +2 _0MC_2_4_5  <= 41.6311
 Statistics_Ineq._80__3___h(0MC_2_4_5)___2___h(5)____3___log2(1644535.5505828804)_|_3_|_MC.COMPANY_TYPE_ID: -2 _5 +3 _0MC_2_4_5  <= 61.9477
 Statistics_Ineq._81__4___h(0MC_2_4_5)___3___h(5)____4___log2(1552652.8676006738)_|_4_|_MC.COMPANY_TYPE_ID: -3 _5 +4 _0MC_2_4_5  <= 82.2652
 Statistics_Ineq._82__5___h(0MC_2_4_5)___4___h(5)____5___log2(1500166.817088087)_|_5_|_MC.COMPANY_TYPE_ID: -4 _5 +5 _0MC_2_4_5  <= 102.583
 Statistics_Ineq._83__6___h(0MC_2_4_5)___5___h(5)____6___log2(1466295.809685982)_|_6_|_MC.COMPANY_TYPE_ID: -5 _5 +6 _0MC_2_4_5  <= 122.902
 Statistics_Ineq._84__7___h(0MC_2_4_5)___6___h(5)____7___log2(1442680.6626064067)_|_7_|_MC.COMPANY_TYPE_ID: -6 _5 +7 _0MC_2_4_5  <= 143.222
 Statistics_Ineq._85__8___h(0MC_2_4_5)___7___h(5)____8___log2(1425312.9782620256)_|_8_|_MC.COMPANY_TYPE_ID: -7 _5 +8 _0MC_2_4_5  <= 163.543
 Statistics_Ineq._86__9___h(0MC_2_4_5)___8___h(5)____9___log2(1412031.354243233)_|_9_|_MC.COMPANY_TYPE_ID: -8 _5 +9 _0MC_2_4_5  <= 183.864
 Statistics_Ineq._87__10___h(0MC_2_4_5)___9___h(5)____10___log2(1401567.7204422245)_|_10_|_MC.COMPANY_TYPE_ID: -9 _5 +10 _0MC_2_4_5  <= 204.186
 Statistics_Ineq._88__h(0MC_2_4_5)___h(5)____log2(1334883.0)_|_inf_|_MC.COMPANY_TYPE_ID: -1 _5 +1 _0MC_2_4_5  <= 20.3483
 Statistics_Ineq._89__1___h(0MC_2_4_5)___0___h(4)____1___log2(2609129.0)_|_1_|_MC.COMPANY_ID: +1 _0MC_2_4_5  <= 21.3151
 Statistics_Ineq._90__2___h(0MC_2_4_5)___1___h(4)____2___log2(106883.15010795668)_|_2_|_MC.COMPANY_ID: -1 _4 +2 _0MC_2_4_5  <= 33.4113
 Statistics_Ineq._91__3___h(0MC_2_4_5)___2___h(4)____3___log2(75788.07259073698)_|_3_|_MC.COMPANY_ID: -2 _4 +3 _0MC_2_4_5  <= 48.629
 Statistics_Ineq._92__4___h(0MC_2_4_5)___3___h(4)____4___log2(68743.68174597787)_|_4_|_MC.COMPANY_ID: -3 _4 +4 _0MC_2_4_5  <= 64.2758
 Statistics_Ineq._93__5___h(0MC_2_4_5)___4___h(4)____5___log2(65836.53118034896)_|_5_|_MC.COMPANY_ID: -4 _4 +5 _0MC_2_4_5  <= 80.033
 Statistics_Ineq._94__6___h(0MC_2_4_5)___5___h(4)____6___log2(64352.605232193164)_|_6_|_MC.COMPANY_ID: -5 _4 +6 _0MC_2_4_5  <= 95.8423
 Statistics_Ineq._95__7___h(0MC_2_4_5)___6___h(4)____7___log2(63514.550164509055)_|_7_|_MC.COMPANY_ID: -6 _4 +7 _0MC_2_4_5  <= 111.684
 Statistics_Ineq._96__8___h(0MC_2_4_5)___7___h(4)____8___log2(63012.11279193569)_|_8_|_MC.COMPANY_ID: -7 _4 +8 _0MC_2_4_5  <= 127.547
 Statistics_Ineq._97__9___h(0MC_2_4_5)___8___h(4)____9___log2(62698.45498555785)_|_9_|_MC.COMPANY_ID: -8 _4 +9 _0MC_2_4_5  <= 143.425
 Statistics_Ineq._98__10___h(0MC_2_4_5)___9___h(4)____10___log2(62496.76791365353)_|_10_|_MC.COMPANY_ID: -9 _4 +10 _0MC_2_4_5  <= 159.315
 Statistics_Ineq._99__h(0MC_2_4_5)___h(4)____log2(62075.0)_|_inf_|_MC.COMPANY_ID: -1 _4 +1 _0MC_2_4_5  <= 15.9217
 Statistics_Ineq._100__1___h(0RT_3)___0___h(3)____1___log2(12.0)_|_1_|_RT.ID: +1 _0RT_3  <= 3.58496
 Statistics_Ineq._101__2___h(0RT_3)___1___h(3)____2___log2(3.4641016151377544)_|_2_|_RT.ID: -1 _3 +2 _0RT_3  <= 3.58496
 Statistics_Ineq._102__3___h(0RT_3)___2___h(3)____3___log2(2.2894284851066637)_|_3_|_RT.ID: -2 _3 +3 _0RT_3  <= 3.58496
 Statistics_Ineq._103__4___h(0RT_3)___3___h(3)____4___log2(1.8612097182041991)_|_4_|_RT.ID: -3 _3 +4 _0RT_3  <= 3.58496
 Statistics_Ineq._104__5___h(0RT_3)___4___h(3)____5___log2(1.6437518295172258)_|_5_|_RT.ID: -4 _3 +5 _0RT_3  <= 3.58496
 Statistics_Ineq._105__6___h(0RT_3)___5___h(3)____6___log2(1.5130857494229015)_|_6_|_RT.ID: -5 _3 +6 _0RT_3  <= 3.58496
 Statistics_Ineq._106__7___h(0RT_3)___6___h(3)____7___log2(1.4261616352273787)_|_7_|_RT.ID: -6 _3 +7 _0RT_3  <= 3.58496
 Statistics_Ineq._107__8___h(0RT_3)___7___h(3)____8___log2(1.364261601821366)_|_8_|_RT.ID: -7 _3 +8 _0RT_3  <= 3.58496
 Statistics_Ineq._108__9___h(0RT_3)___8___h(3)____9___log2(1.3179806292130023)_|_9_|_RT.ID: -8 _3 +9 _0RT_3  <= 3.58496
 Statistics_Ineq._109__10___h(0RT_3)___9___h(3)____10___log2(1.2820888539868154)_|_10_|_RT.ID: -9 _3 +10 _0RT_3  <= 3.58496
 Statistics_Ineq._110__h(0RT_3)___h(3)____log2(1.0)_|_inf_|_RT.ID: -1 _3 +1 _0RT_3  <= 0
 Statistics_Ineq._111__1___h(0T_2)___0___h(2)____1___log2(2097152.0)_|_1_|_T.ID: +1 _0T_2  <= 21
 Statistics_Ineq._112__2___h(0T_2)___1___h(2)____2___log2(1448.1546878700494)_|_2_|_T.ID: -1 _2 +2 _0T_2  <= 21
 Statistics_Ineq._113__3___h(0T_2)___2___h(2)____3___log2(127.99999999999997)_|_3_|_T.ID: -2 _2 +3 _0T_2  <= 21
 Statistics_Ineq._114__4___h(0T_2)___3___h(2)____4___log2(38.05462768008707)_|_4_|_T.ID: -3 _2 +4 _0T_2  <= 21
 Statistics_Ineq._115__5___h(0T_2)___4___h(2)____5___log2(18.37917367995256)_|_5_|_T.ID: -4 _2 +5 _0T_2  <= 21
 Statistics_Ineq._116__6___h(0T_2)___5___h(2)____6___log2(11.31370849898476)_|_6_|_T.ID: -5 _2 +6 _0T_2  <= 21
 Statistics_Ineq._117__7___h(0T_2)___6___h(2)____7___log2(7.999999999999999)_|_7_|_T.ID: -6 _2 +7 _0T_2  <= 21
 Statistics_Ineq._118__8___h(0T_2)___7___h(2)____8___log2(6.168843301631763)_|_8_|_T.ID: -7 _2 +8 _0T_2  <= 21
 Statistics_Ineq._119__9___h(0T_2)___8___h(2)____9___log2(5.039684199579492)_|_9_|_T.ID: -8 _2 +9 _0T_2  <= 21
 Statistics_Ineq._120__10___h(0T_2)___9___h(2)____10___log2(4.287093850145173)_|_10_|_T.ID: -9 _2 +10 _0T_2  <= 21
 Statistics_Ineq._121__h(0T_2)___h(2)____log2(1.0)_|_inf_|_T.ID: -1 _2 +1 _0T_2  <= 0
Bounds
 0 <= _1
 0 <= _2
 0 <= _3
 0 <= _4
 0 <= _5
 0 <= _0CHN
 0 <= _0CHN_1
 0 <= _0CI
 0 <= _0CI_1_2_3
 0 <= _0CN
 0 <= _0CN_4
 0 <= _0CT
 0 <= _0CT_5
 0 <= _0MC
 0 <= _0MC_2_4_5
 0 <= _0RT
 0 <= _0RT_3
 0 <= _0T
 0 <= _0T_2
End
